Instance: E253-27k.dat
Class:  1
252 --- number of customers (no depot)
27 --- number of vehicles
252 --- number of items
Capacity - height - width of vehicles
  1000     40     20
Node - x - y - demand  Readytime Duetime
  0.00    0.00   0.00   0.00 0       509.00
  1.00    3.00   1.00 300.00  95.00  127.00
  2.00    3.00   3.00 300.00 432.00  468.00
  3.00    1.00   3.00 300.00  80.00  112.00
  4.00   -1.00   3.00 300.00 428.00  469.00
  5.00   -3.00   3.00 300.00 404.00  436.00
  6.00   -3.00   1.00 300.00 358.00  393.00
  7.00   -3.00  -1.00 300.00 437.00  481.00
  8.00   -3.00  -3.00 300.00 241.00  284.00
  9.00   -1.00  -3.00 300.00 348.00  378.00
 10.00    1.00  -3.00 300.00 241.00  278.00
 11.00    3.00  -3.00 300.00 350.00  392.00
 12.00    3.00  -1.00 300.00  39.00   84.00
 13.00    5.00   1.00 180.00 185.00  224.00
 14.00    5.00   3.00 180.00 203.00  239.00
 15.00    5.00   5.00 180.00  61.00  102.00
 16.00    3.00   5.00 180.00  26.00   69.00
 17.00    1.00   5.00 180.00 361.00  406.00
 18.00   -1.00   5.00 180.00  28.00   73.00
 19.00   -3.00   5.00 180.00 136.00  179.00
 20.00   -5.00   5.00 180.00 371.00  412.00
 21.00   -5.00   3.00 180.00 179.00  214.00
 22.00   -5.00   1.00 180.00 323.00  362.00
 23.00   -5.00  -1.00 180.00 346.00  378.00
 24.00   -5.00  -3.00 180.00 206.00  246.00
 25.00   -5.00  -5.00 180.00  82.00  127.00
 26.00   -3.00  -5.00 180.00 403.00  442.00
 27.00   -1.00  -5.00 180.00 368.00  402.00
 28.00    1.00  -5.00 180.00  35.00   71.00
 29.00    3.00  -5.00 180.00 315.00  347.00
 30.00    5.00  -5.00 180.00 190.00  225.00
 31.00    5.00  -3.00 180.00 331.00  361.00
 32.00    5.00  -1.00 180.00 110.00  148.00
 33.00    7.00   1.00 128.00 314.00  346.00
 34.00    7.00   3.00 128.00 143.00  183.00
 35.00    7.00   5.00 128.00  18.00   60.00
 36.00    7.00   7.00 128.00  78.00  115.00
 37.00    5.00   7.00 128.00 253.00  292.00
 38.00    3.00   7.00 128.00 348.00  385.00
 39.00    1.00   7.00 128.00 131.00  165.00
 40.00   -1.00   7.00 128.00 231.00  275.00
 41.00   -3.00   7.00 128.00 402.00  435.00
 42.00   -5.00   7.00 128.00 275.00  319.00
 43.00   -7.00   7.00 128.00 419.00  454.00
 44.00   -7.00   5.00 128.00 136.00  181.00
 45.00   -7.00   3.00 128.00 143.00  183.00
 46.00   -7.00   1.00 128.00 350.00  385.00
 47.00   -7.00  -1.00 128.00 351.00  387.00
 48.00   -7.00  -3.00 128.00 151.00  191.00
 49.00   -7.00  -5.00 128.00 352.00  383.00
 50.00   -7.00  -7.00 128.00 207.00  245.00
 51.00   -5.00  -7.00 128.00 204.00  246.00
 52.00   -3.00  -7.00 128.00 281.00  325.00
 53.00   -1.00  -7.00 128.00  18.00   49.00
 54.00    1.00  -7.00 128.00 109.00  150.00
 55.00    3.00  -7.00 128.00 200.00  230.00
 56.00    5.00  -7.00 128.00 311.00  352.00
 57.00    7.00  -7.00 128.00 180.00  224.00
 58.00    7.00  -5.00 128.00 391.00  436.00
 59.00    7.00  -3.00 128.00  90.00  125.00
 60.00    7.00  -1.00 128.00 180.00  224.00
 61.00    9.00   1.00 100.00  68.00  112.00
 62.00    9.00   3.00 100.00  31.00   68.00
 63.00    9.00   5.00 100.00 387.00  419.00
 64.00    9.00   7.00 100.00 406.00  441.00
 65.00    9.00   9.00 100.00 304.00  334.00
 66.00    7.00   9.00 100.00 295.00  340.00
 67.00    5.00   9.00 100.00  16.00   56.00
 68.00    3.00   9.00 100.00 103.00  134.00
 69.00    1.00   9.00 100.00 172.00  212.00
 70.00   -1.00   9.00 100.00 154.00  198.00
 71.00   -3.00   9.00 100.00 411.00  449.00
 72.00   -5.00   9.00 100.00 283.00  324.00
 73.00   -7.00   9.00 100.00 376.00  421.00
 74.00   -9.00   9.00 100.00 174.00  210.00
 75.00   -9.00   7.00 100.00 409.00  447.00
 76.00   -9.00   5.00 100.00  63.00   98.00
 77.00   -9.00   3.00 100.00  65.00  110.00
 78.00   -9.00   1.00 100.00 315.00  351.00
 79.00   -9.00  -1.00 100.00 152.00  188.00
 80.00   -9.00  -3.00 100.00 102.00  135.00
 81.00   -9.00  -5.00 100.00 234.00  266.00
 82.00   -9.00  -7.00 100.00 276.00  312.00
 83.00   -9.00  -9.00 100.00 231.00  268.00
 84.00   -7.00  -9.00 100.00 422.00  467.00
 85.00   -5.00  -9.00 100.00 194.00  227.00
 86.00   -3.00  -9.00 100.00 139.00  175.00
 87.00   -1.00  -9.00 100.00 144.00  185.00
 88.00    1.00  -9.00 100.00 319.00  350.00
 89.00    3.00  -9.00 100.00 423.00  455.00
 90.00    5.00  -9.00 100.00  98.00  130.00
 91.00    7.00  -9.00 100.00 369.00  410.00
 92.00    9.00  -9.00 100.00 189.00  228.00
 93.00    9.00  -7.00 100.00 155.00  191.00
 94.00    9.00  -5.00 100.00  69.00  107.00
 95.00    9.00  -3.00 100.00 180.00  220.00
 96.00    9.00  -1.00 100.00  92.00  129.00
 97.00   11.00   1.00  81.00  25.00   62.00
 98.00   11.00   3.00  81.00 159.00  202.00
 99.00   11.00   5.00  81.00  19.00   51.00
100.00   11.00   7.00  81.00 116.00  153.00
101.00   11.00   9.00  81.00 418.00  452.00
102.00   11.00  11.00  81.00 112.00  146.00
103.00    9.00  11.00  81.00 431.00  476.00
104.00    7.00  11.00  81.00 417.00  454.00
105.00    5.00  11.00  81.00 409.00  444.00
106.00    3.00  11.00  81.00 408.00  446.00
107.00    1.00  11.00  81.00 421.00  457.00
108.00   -1.00  11.00  81.00 209.00  253.00
109.00   -3.00  11.00  81.00 368.00  399.00
110.00   -5.00  11.00  81.00 341.00  372.00
111.00   -7.00  11.00  81.00  59.00   96.00
112.00   -9.00  11.00  81.00 233.00  276.00
113.00  -11.00  11.00  81.00 253.00  297.00
114.00  -11.00   9.00  81.00 214.00  248.00
115.00  -11.00   7.00  81.00 434.00  469.00
116.00  -11.00   5.00  81.00 258.00  297.00
117.00  -11.00   3.00  81.00 364.00  404.00
118.00  -11.00   1.00  81.00 117.00  153.00
119.00  -11.00  -1.00  81.00  61.00   99.00
120.00  -11.00  -3.00  81.00  65.00   97.00
121.00  -11.00  -5.00  81.00 294.00  325.00
122.00  -11.00  -7.00  81.00 247.00  292.00
123.00  -11.00  -9.00  81.00 263.00  303.00
124.00  -11.00 -11.00  81.00 300.00  337.00
125.00   -9.00 -11.00  81.00 343.00  378.00
126.00   -7.00 -11.00  81.00 381.00  414.00
127.00   -5.00 -11.00  81.00 155.00  192.00
128.00   -3.00 -11.00  81.00 262.00  299.00
129.00   -1.00 -11.00  81.00  12.00   47.00
130.00    1.00 -11.00  81.00 420.00  452.00
131.00    3.00 -11.00  81.00  73.00  104.00
132.00    5.00 -11.00  81.00 308.00  344.00
133.00    7.00 -11.00  81.00  30.00   70.00
134.00    9.00 -11.00  81.00 183.00  219.00
135.00   11.00 -11.00  81.00 331.00  376.00
136.00   11.00  -9.00  81.00 316.00  357.00
137.00   11.00  -7.00  81.00 239.00  283.00
138.00   11.00  -5.00  81.00 283.00  316.00
139.00   11.00  -3.00  81.00 211.00  243.00
140.00   11.00  -1.00  81.00 258.00  297.00
141.00   13.00   1.00  69.00 199.00  241.00
142.00   13.00   3.00  69.00 315.00  353.00
143.00   13.00   5.00  69.00 336.00  375.00
144.00   13.00   7.00  69.00 197.00  228.00
145.00   13.00   9.00  69.00 357.00  393.00
146.00   13.00  11.00  69.00 105.00  137.00
147.00   13.00  13.00  69.00 273.00  307.00
148.00   11.00  13.00  69.00 218.00  263.00
149.00    9.00  13.00  69.00 302.00  345.00
150.00    7.00  13.00  69.00 303.00  344.00
151.00    5.00  13.00  69.00 327.00  372.00
152.00    3.00  13.00  69.00 397.00  434.00
153.00    1.00  13.00  69.00 291.00  324.00
154.00   -1.00  13.00  69.00  13.00   48.00
155.00   -3.00  13.00  69.00 240.00  276.00
156.00   -5.00  13.00  69.00 438.00  476.00
157.00   -7.00  13.00  69.00 101.00  138.00
158.00   -9.00  13.00  69.00 252.00  291.00
159.00  -11.00  13.00  69.00 394.00  435.00
160.00  -13.00  13.00  69.00 354.00  399.00
161.00  -13.00  11.00  69.00 435.00  478.00
162.00  -13.00   9.00  69.00 107.00  137.00
163.00  -13.00   7.00  69.00 349.00  384.00
164.00  -13.00   5.00  69.00  80.00  113.00
165.00  -13.00   3.00  69.00 380.00  413.00
166.00  -13.00   1.00  69.00  38.00   74.00
167.00  -13.00  -1.00  69.00 349.00  384.00
168.00  -13.00  -3.00  69.00 242.00  274.00
169.00  -13.00  -5.00  69.00 229.00  264.00
170.00  -13.00  -7.00  69.00  55.00   95.00
171.00  -13.00  -9.00  69.00  75.00  110.00
172.00  -13.00 -11.00  69.00 390.00  431.00
173.00  -13.00 -13.00  69.00 205.00  250.00
174.00  -11.00 -13.00  69.00 268.00  309.00
175.00   -9.00 -13.00  69.00  58.00   88.00
176.00   -7.00 -13.00  69.00 105.00  148.00
177.00   -5.00 -13.00  69.00 111.00  141.00
178.00   -3.00 -13.00  69.00 140.00  171.00
179.00   -1.00 -13.00  69.00 189.00  224.00
180.00    1.00 -13.00  69.00 445.00  480.00
181.00    3.00 -13.00  69.00 330.00  364.00
182.00    5.00 -13.00  69.00 206.00  244.00
183.00    7.00 -13.00  69.00 157.00  202.00
184.00    9.00 -13.00  69.00  98.00  128.00
185.00   11.00 -13.00  69.00 139.00  176.00
186.00   13.00 -13.00  69.00 343.00  383.00
187.00   13.00 -11.00  69.00 428.00  468.00
188.00   13.00  -9.00  69.00 210.00  245.00
189.00   13.00  -7.00  69.00 326.00  356.00
190.00   13.00  -5.00  69.00 436.00  466.00
191.00   13.00  -3.00  69.00 243.00  285.00
192.00   13.00  -1.00  69.00 381.00  425.00
193.00   15.00   1.00  60.00 308.00  343.00
194.00   15.00   3.00  60.00 118.00  159.00
195.00   15.00   5.00  60.00 264.00  294.00
196.00   15.00   7.00  60.00 253.00  289.00
197.00   15.00   9.00  60.00 280.00  321.00
198.00   15.00  11.00  60.00 316.00  357.00
199.00   15.00  13.00  60.00 365.00  410.00
200.00   15.00  15.00  60.00  76.00  119.00
201.00   13.00  15.00  60.00 344.00  384.00
202.00   11.00  15.00  60.00 135.00  167.00
203.00    9.00  15.00  60.00 433.00  472.00
204.00    7.00  15.00  60.00  46.00   89.00
205.00    5.00  15.00  60.00 226.00  271.00
206.00    3.00  15.00  60.00 331.00  364.00
207.00    1.00  15.00  60.00 119.00  155.00
208.00   -1.00  15.00  60.00 274.00  304.00
209.00   -3.00  15.00  60.00  82.00  114.00
210.00   -5.00  15.00  60.00 175.00  215.00
211.00   -7.00  15.00  60.00 290.00  333.00
212.00   -9.00  15.00  60.00 266.00  302.00
213.00  -11.00  15.00  60.00 401.00  443.00
214.00  -13.00  15.00  60.00 296.00  332.00
215.00  -15.00  15.00  60.00 170.00  209.00
216.00  -15.00  13.00  60.00 195.00  238.00
217.00  -15.00  11.00  60.00 109.00  153.00
218.00  -15.00   9.00  60.00 172.00  206.00
219.00  -15.00   7.00  60.00 224.00  257.00
220.00  -15.00   5.00  60.00 188.00  225.00
221.00  -15.00   3.00  60.00 245.00  280.00
222.00  -15.00   1.00  60.00 415.00  460.00
223.00  -15.00  -1.00  60.00  26.00   61.00
224.00  -15.00  -3.00  60.00 441.00  478.00
225.00  -15.00  -5.00  60.00   9.00   48.00
226.00  -15.00  -7.00  60.00 175.00  218.00
227.00  -15.00  -9.00  60.00 182.00  222.00
228.00  -15.00 -11.00  60.00  21.00   60.00
229.00  -15.00 -13.00  60.00  18.00   49.00
230.00  -15.00 -15.00  60.00  27.00   70.00
231.00  -13.00 -15.00  60.00 440.00  472.00
232.00  -11.00 -15.00  60.00 304.00  348.00
233.00   -9.00 -15.00  60.00 283.00  314.00
234.00   -7.00 -15.00  60.00 115.00  150.00
235.00   -5.00 -15.00  60.00  75.00  105.00
236.00   -3.00 -15.00  60.00  85.00  126.00
237.00   -1.00 -15.00  60.00 230.00  264.00
238.00    1.00 -15.00  60.00 276.00  315.00
239.00    3.00 -15.00  60.00 256.00  292.00
240.00    5.00 -15.00  60.00 169.00  199.00
241.00    7.00 -15.00  60.00  76.00  117.00
242.00    9.00 -15.00  60.00 205.00  243.00
243.00   11.00 -15.00  60.00 388.00  422.00
244.00   13.00 -15.00  60.00  35.00   65.00
245.00   15.00 -15.00  60.00 203.00  240.00
246.00   15.00 -13.00  60.00 279.00  324.00
247.00   15.00 -11.00  60.00 217.00  249.00
248.00   15.00  -9.00  60.00 148.00  184.00
249.00   15.00  -7.00  60.00 154.00  198.00
250.00   15.00  -5.00  60.00 253.00  283.00
251.00   15.00  -3.00  60.00 406.00  439.00
252.00   15.00  -1.00  60.00 189.00  232.00
Node - number of items - h - w for each item
    0   0
    1   3    7   11   10    5   30    3
    2   3   26    3   16    3   27    2
    3   2    4   10    6    7
    4   1   16    6
    5   2    4   12   30    2
    6   3   11    7   15    3   13    3
    7   2    8    5   14    2
    8   2    7    9   18    2
    9   2    6   10   12    3
   10   1   21    2
   11   3    6   12    6   12   10    6
   12   1   12    8
   13   2   14    3   12    3
   14   3   18    4   30    3   18    3
   15   1    7   14
   16   2    8   12   13    2
   17   1   18    3
   18   3    6   16    5    7   30    3
   19   2   12    8   30    3
   20   1    9    7
   21   1    7    9
   22   3    7   11   12    7   27    3
   23   1   13    2
   24   1    9    8
   25   2    7   13    6   13
   26   2    6    7   15    3
   27   3    7   11   14    5   28    3
   28   2    5   16   15    3
   29   3    7   16   24    4   22    3
   30   3    5   15    5    7   15    3
   31   2    5   14   11    6
   32   2    6    9   19    2
   33   3    6   11    4   11    6    6
   34   1   24    3
   35   2    5   16   15    5
   36   3    5   16    5    7   14    2
   37   2    5    8   15    6
   38   2   18    4   19    2
   39   1   25    4
   40   2    6    9   17    3
   41   1   19    3
   42   2   13    8   12    7
   43   3    8   14    5    9   11    7
   44   3    5   13    5    6   13    3
   45   2    5   11    7    8
   46   2    6   16    7    8
   47   3   12    6    9    5   25    2
   48   2   11    7   25    2
   49   3   14    6   18    4   23    3
   50   1   25    4
   51   3    5   14    6   10   23    2
   52   1   30    4
   53   1   12    6
   54   1    9    5
   55   2   10    7    8    7
   56   1   17    3
   57   3    7   13    7   12    8    7
   58   2   13    7   21    3
   59   3    5   14    6   12    8    8
   60   2    8   14   12    4
   61   2    4   12   16    6
   62   1    8   12
   63   1   12    7
   64   3    8   10   16    4   23    3
   65   3    7   10    7    7   19    3
   66   2    8    7   25    4
   67   2    7   14   13    4
   68   3    4   11   10    8    8    6
   69   1    9    7
   70   3    5   14    9    5   17    4
   71   2    5   13   22    2
   72   2    6   11   21    3
   73   1   13    8
   74   1   17    3
   75   2   27    3   25    2
   76   3   12    6    5    6   18    4
   77   3    7   13    5    8   12    6
   78   1   20    3
   79   3    9    7   26    2   19    2
   80   1   11    5
   81   2    7   14    8    5
   82   1   21    2
   83   2    7   16   13    2
   84   1   14    6
   85   2    8    6   20    4
   86   1   11    7
   87   2   19    4   13    4
   88   3    8   10   15    7   13    3
   89   1   16    6
   90   1   12    7
   91   2   14    6   22    3
   92   3    6   16   10    7   24    2
   93   1    4   16
   94   2    6   12   13    4
   95   1   26    4
   96   3   12    5   30    4   21    3
   97   2   14    4   28    2
   98   2   13    7   12    3
   99   1   12    8
  100   3    6   11   14    7   22    3
  101   3    5    9    4    9   13    5
  102   3    5   12    4    8   19    4
  103   2   15    8   12    3
  104   3    7   13    5    8   18    3
  105   2   11    6   12    3
  106   2    8   13   10    5
  107   2    5   14    5    9
  108   3    6   16    8   14    8   10
  109   3    6   16   15    6   14    5
  110   1    5   12
  111   3    5   14   15    7   27    4
  112   1   23    3
  113   2   24    3   14    3
  114   3    5   11    7   10   22    3
  115   1    4   10
  116   2    5   15   14    3
  117   1   24    3
  118   3    7   11    5    9   10    5
  119   3    8   12   15    8   26    2
  120   1    8   14
  121   3    4    9   20    4   24    3
  122   3    8   14    6    7   25    3
  123   2   29    3   30    2
  124   2    8   11    7    7
  125   1   31    4
  126   2    9    6   19    2
  127   1    4    9
  128   2   14    5   16    3
  129   2    4   15   16    5
  130   1   13    7
  131   2    5   16   11    8
  132   1    8   10
  133   1    5   14
  134   3    6   16   20    3   15    2
  135   1    5    7
  136   2   11    8   10    8
  137   3    6   16   15    8    9    5
  138   3    8   15    7    9   15    5
  139   3    4   12    7   10   11    5
  140   3    4   15   28    4   17    4
  141   3   23    4   22    3   21    3
  142   2   12    8   15    6
  143   1   10    5
  144   3    6   15    8   11   12    3
  145   1   21    2
  146   2    7   11    7    9
  147   1    6   10
  148   2    6   13    8    8
  149   2    6   12   12    5
  150   2   14    4   12    2
  151   3    6    8    8    7   27    2
  152   3    5    9   13    7   12    7
  153   1   12    8
  154   1    8    6
  155   2    8    8   32    3
  156   2    5   12   12    5
  157   2   16    3   16    2
  158   3   11    7   11    7    9    4
  159   2    4    8   14    4
  160   3    6   13    5    6   27    4
  161   2   13    4   13    3
  162   3   10    7   15    4   27    3
  163   3    6   11    7    8   31    3
  164   3    5   13   12    7   14    5
  165   1   14    3
  166   2    4   11   27    3
  167   3   11    8   11    6   14    2
  168   2   15    8    5    6
  169   3    6    9   12    6   19    4
  170   3    4    6   32    3   27    3
  171   2    9    7   28    3
  172   3    5    6   31    3   30    3
  173   2    7   10   20    4
  174   1   13    7
  175   2    5   14    6    9
  176   1   28    3
  177   3    9    8    9    7   26    4
  178   2    8   13   31    2
  179   1   23    2
  180   2    9    6   14    5
  181   3    7    9   14    5   14    3
  182   1   22    2
  183   3    4    7   14    6   31    2
  184   2    5   16   26    3
  185   2    5   14   14    7
  186   3    5   12   13    7   13    3
  187   1   12    7
  188   2    6   14   20    3
  189   2   10    4   16    3
  190   3    5    9   14    7   21    2
  191   3    6   11    6    7   16    4
  192   2    6    8   15    3
  193   1   30    3
  194   1   11    8
  195   2    7    9   16    2
  196   1   28    2
  197   3    8    8   14    4   17    3
  198   3    5    8   21    4   13    4
  199   1    5    9
  200   1   17    3
  201   3    8    5   24    4   14    4
  202   2    6   14   10    8
  203   1    6    6
  204   3    8    6   15    4   22    2
  205   2    6   12    7   10
  206   2    8   14    6    8
  207   1   15    6
  208   2    4   16    8    8
  209   3    6    9   16    7    7    7
  210   3   11    7    7    6   27    4
  211   2    5   16   15    6
  212   1   16    7
  213   1    6   14
  214   3    5   13   14    6   19    2
  215   1    8   10
  216   1   24    4
  217   2    5   11    8    4
  218   2    4    9   21    2
  219   2   12    5   13    2
  220   1   20    3
  221   2   11    5   26    3
  222   1    7    9
  223   1   25    3
  224   2    5   13   25    2
  225   3    5   16   13    8   25    3
  226   3    5   12   25    3   13    3
  227   3    4   10   29    3   14    3
  228   2    6   12    8    4
  229   3    4   15    7   10   18    4
  230   1   28    3
  231   3   13    6   24    3   20    3
  232   1   15    4
  233   3    7   12    7   10   12    5
  234   2    7   13   15    5
  235   1   15    3
  236   3    7   11   10    5   14    4
  237   1    6    9
  238   3    6   15    7   12   14    3
  239   2   18    3   21    2
  240   2   11    6   26    4
  241   1    7   12
  242   2    6   16   11    7
  243   1    7   11
  244   2    6   13    6   12
  245   1   13    3
  246   2   11    6   17    2
  247   1    6   16
  248   2    6   11   29    2
  249   1    9    5
  250   2    6   14    5   11
  251   2    9    8   32    3
  252   2    5   13   11    5
   
   
